# Objective value = 3.7885300000000811e+03
I_0_0 2042
I_0_1 2.4260000000000173e+03
I_0_2 2.4319999999999468e+03
I_0_3 3.2580000000000291e+03
I_1_0 32
I_1_1 0
I_1_2 32
I_1_3 0
I_2_0 72
I_2_1 72
I_2_2 3.5999999999994706e+01
I_2_3 0
I_3_0 182
I_3_1 182
I_3_2 91
I_3_3 0
I_4_0 52
I_4_1 52
I_4_2 52
I_4_3 0
I_5_0 152
I_5_1 1.5200000000000762e+02
I_5_2 7.6000000000007645e+01
I_5_3 3.8470115981681374e-11
I_6_0 20
I_6_1 1.9999999999996206e+01
I_6_2 1.0000000000003793e+01
I_6_3 3.7928549190269223e-12
I_7_0 85
I_7_1 -1.9293143471710295e-11
I_7_2 85
I_7_3 -3.7118530471502709e-11
I_8_0 79
I_8_1 -1.4797919833942075e-12
I_8_2 79.0000000000015
I_8_3 -1.5019097077129118e-12
I_9_0 22
I_9_1 0
I_9_2 22
I_9_3 0
I_10_0 72
I_10_1 72
I_10_2 36
I_10_3 0
I_11_0 136
I_11_1 136
I_11_2 68
I_11_3 -1.5543122344752192e-15
I_12_0 46
I_12_1 0
I_12_2 46
I_12_3 0
I_13_0 55
I_13_1 0
I_13_2 5.5000000000020854e+01
I_13_3 -2.0854429294558940e-11
I_14_0 65
I_14_1 0
I_14_2 6.5000000000011440e+01
I_14_3 -2.4648788919035309e-11
I_15_0 146
I_15_1 146
I_15_2 7.3000000000013841e+01
I_15_3 1.3838891524927424e-11
q_1_0_0 0
q_1_0_1 64
q_1_0_2 0
q_1_1_0 0
q_1_1_1 0
q_1_1_2 0
q_1_2_0 0
q_1_2_1 0
q_1_2_2 0
q_1_3_0 0
q_1_3_1 0
q_1_3_2 0
q_1_4_0 0
q_1_4_1 0
q_1_4_2 0
q_2_0_0 36
q_2_0_1 -5.2919890691782712e-12
q_2_0_2 5.2919890691782712e-12
q_2_1_0 0
q_2_1_1 0
q_2_1_2 0
q_2_2_0 0
q_2_2_1 0
q_2_2_2 0
q_2_3_0 0
q_2_3_1 0
q_2_3_2 0
q_2_4_0 0
q_2_4_1 0
q_2_4_2 0
q_3_0_0 91
q_3_0_1 0
q_3_0_2 0
q_3_1_0 0
q_3_1_1 0
q_3_1_2 0
q_3_2_0 0
q_3_2_1 0
q_3_2_2 0
q_3_3_0 0
q_3_3_1 0
q_3_3_2 0
q_3_4_0 0
q_3_4_1 0
q_3_4_2 0
q_4_0_0 0
q_4_0_1 52
q_4_0_2 0
q_4_1_0 52
q_4_1_1 0
q_4_1_2 0
q_4_2_0 0
q_4_2_1 0
q_4_2_2 0
q_4_3_0 0
q_4_3_1 0
q_4_3_2 0
q_4_4_0 0
q_4_4_1 0
q_4_4_2 0
q_5_0_0 7.5999999999978840e+01
q_5_0_1 0
q_5_0_2 3.0796254435472292e-11
q_5_1_0 2.8825275499855252e-11
q_5_1_1 0
q_5_1_2 -6.1592508870944584e-11
q_5_2_0 0
q_5_2_1 0
q_5_2_2 3.0796254435472292e-11
q_5_3_0 0
q_5_3_1 0
q_5_3_2 3.0796254435472292e-11
q_5_4_0 0
q_5_4_1 0
q_5_4_2 0
q_6_0_0 0
q_6_0_1 0
q_6_0_2 0
q_6_1_0 9.9999999999962075e+00
q_6_1_1 0
q_6_1_2 0
q_6_2_0 0
q_6_2_1 7.58415552581937e-12
q_6_2_2 0
q_6_3_0 0
q_6_3_1 0
q_6_3_2 0
q_6_4_0 0
q_6_4_1 0
q_6_4_2 0
q_7_0_0 -1.9293143471710295e-11
q_7_0_1 0
q_7_0_2 0
q_7_1_0 0
q_7_1_1 1.7000000000003544e+02
q_7_1_2 6.1592508870944584e-11
q_7_2_0 0
q_7_2_1 0
q_7_2_2 -1.3906209517244861e-10
q_7_3_0 0
q_7_3_1 3.1920577292510188e-12
q_7_3_2 0
q_7_4_0 0
q_7_4_1 -1.9331425349378151e-11
q_7_4_2 4.0351277874606239e-11
q_8_0_0 -1.4797919833942075e-12
q_8_0_1 0
q_8_0_2 0
q_8_1_0 0
q_8_1_1 0
q_8_1_2 0
q_8_2_0 0
q_8_2_1 -1.4210854715202004e-14
q_8_2_2 0
q_8_3_0 0
q_8_3_1 1.5800000000000009e+02
q_8_3_2 0
q_8_4_0 0
q_8_4_1 2.9471980411699406e-12
q_8_4_2 -3.0064839506849239e-12
q_9_0_0 0
q_9_0_1 0
q_9_0_2 0
q_9_1_0 0
q_9_1_1 -8.3399953609841759e-13
q_9_1_2 0
q_9_2_0 0
q_9_2_1 -9.2148511043888e-15
q_9_2_2 0
q_9_3_0 0
q_9_3_1 4.4000000000007127e+01
q_9_3_2 0
q_9_4_0 0
q_9_4_1 -6.2700955538730341e-12
q_9_4_2 0
q_10_0_0 0
q_10_0_1 0
q_10_0_2 0
q_10_1_0 36
q_10_1_1 0
q_10_1_2 0
q_10_2_0 0
q_10_2_1 0
q_10_2_2 0
q_10_3_0 0
q_10_3_1 0
q_10_3_2 0
q_10_4_0 0
q_10_4_1 0
q_10_4_2 0
q_11_0_0 0
q_11_0_1 0
q_11_0_2 0
q_11_1_0 68
q_11_1_1 0
q_11_1_2 0
q_11_2_0 0
q_11_2_1 0
q_11_2_2 0
q_11_3_0 0
q_11_3_1 0
q_11_3_2 0
q_11_4_0 0
q_11_4_1 -1.5543122344752192e-15
q_11_4_2 0
q_12_0_0 0
q_12_0_1 5.3483883988292291e-12
q_12_0_2 0
q_12_1_0 0
q_12_1_1 0
q_12_1_2 0
q_12_2_0 0
q_12_2_1 9.1999999999994657e+01
q_12_2_2 0
q_12_3_0 0
q_12_3_1 0
q_12_3_2 0
q_12_4_0 0
q_12_4_1 0
q_12_4_2 0
q_13_0_0 0
q_13_0_1 0
q_13_0_2 0
q_13_1_0 0
q_13_1_1 0
q_13_1_2 0
q_13_2_0 0
q_13_2_1 110
q_13_2_2 0
q_13_3_0 0
q_13_3_1 0
q_13_3_2 0
q_13_4_0 0
q_13_4_1 2.0853124215644061e-11
q_13_4_2 -4.1708858589117881e-11
q_14_0_0 0
q_14_0_1 130
q_14_0_2 -3.6088526964772922e-11
q_14_1_0 0
q_14_1_1 0
q_14_1_2 0
q_14_2_0 0
q_14_2_1 0
q_14_2_2 0
q_14_3_0 0
q_14_3_1 0
q_14_3_2 0
q_14_4_0 0
q_14_4_1 1.1446739778346963e-11
q_14_4_2 0
q_15_0_0 0
q_15_0_1 0
q_15_0_2 0
q_15_1_0 73
q_15_1_1 0
q_15_1_2 0
q_15_2_0 0
q_15_2_1 0
q_15_2_2 0
q_15_3_0 0
q_15_3_1 0
q_15_3_2 0
q_15_4_0 0
q_15_4_1 1.3841372492606752e-11
q_15_4_2 0
y_0_0_0 1
y_0_0_1 1
y_0_0_2 0
y_0_1_0 1
y_0_1_1 1.0000000000001896e+00
y_0_1_2 0
y_0_2_0 0
y_0_2_1 1
y_0_2_2 -4.3667673643721372e-13
y_0_3_0 0
y_0_3_1 1.0000000000000193e+00
y_0_3_2 1.2417844530432376e-13
y_0_4_0 0
y_0_4_1 9.4663426403185369e-14
y_0_4_2 -1.9043794319273388e-14
y_1_0_0 0
y_1_0_1 1
y_1_0_2 0
y_1_1_0 0
y_1_1_1 0
y_1_1_2 0
y_1_2_0 0
y_1_2_1 0
y_1_2_2 0
y_1_3_0 0
y_1_3_1 0
y_1_3_2 0
y_1_4_0 0
y_1_4_1 0
y_1_4_2 0
y_2_0_0 1
y_2_0_1 0
y_2_0_2 0
y_2_1_0 0
y_2_1_1 0
y_2_1_2 0
y_2_2_0 0
y_2_2_1 0
y_2_2_2 0
y_2_3_0 0
y_2_3_1 0
y_2_3_2 0
y_2_4_0 0
y_2_4_1 0
y_2_4_2 0
y_3_0_0 1
y_3_0_1 0
y_3_0_2 0
y_3_1_0 0
y_3_1_1 0
y_3_1_2 0
y_3_2_0 0
y_3_2_1 0
y_3_2_2 0
y_3_3_0 0
y_3_3_1 0
y_3_3_2 0
y_3_4_0 0
y_3_4_1 0
y_3_4_2 0
y_4_0_0 0
y_4_0_1 1
y_4_0_2 0
y_4_1_0 1
y_4_1_1 0
y_4_1_2 0
y_4_2_0 0
y_4_2_1 0
y_4_2_2 0
y_4_3_0 0
y_4_3_1 0
y_4_3_2 0
y_4_4_0 0
y_4_4_1 0
y_4_4_2 0
y_5_0_0 9.9999999999972156e-01
y_5_0_1 0
y_5_0_2 0
y_5_1_0 3.7927994078756910e-13
y_5_1_1 0
y_5_1_2 0
y_5_2_0 0
y_5_2_1 0
y_5_2_2 0
y_5_3_0 0
y_5_3_1 0
y_5_3_2 0
y_5_4_0 0
y_5_4_1 0
y_5_4_2 0
y_6_0_0 0
y_6_0_1 0
y_6_0_2 0
y_6_1_0 9.9999999999962075e-01
y_6_1_1 0
y_6_1_2 0
y_6_2_0 0
y_6_2_1 0
y_6_2_2 0
y_6_3_0 0
y_6_3_1 0
y_6_3_2 0
y_6_4_0 0
y_6_4_1 3.7914771301171021e-13
y_6_4_2 0
y_7_0_0 -2.2697815849070935e-13
y_7_0_1 0
y_7_0_2 0
y_7_1_0 0
y_7_1_1 1.0000000000002085e+00
y_7_1_2 0
y_7_2_0 0
y_7_2_1 0
y_7_2_2 -4.3667673643721372e-13
y_7_3_0 0
y_7_3_1 1.8781417393531896e-14
y_7_3_2 0
y_7_4_0 0
y_7_4_1 -2.2716377390263887e-13
y_7_4_2 0
y_8_0_0 -1.8731544093597563e-14
y_8_0_1 0
y_8_0_2 0
y_8_1_0 0
y_8_1_1 0
y_8_1_2 0
y_8_2_0 0
y_8_2_1 0
y_8_2_2 0
y_8_3_0 0
y_8_3_1 1.0000000000000004e+00
y_8_3_2 0
y_8_4_0 0
y_8_4_1 1.8635266940680850e-14
y_8_4_2 -1.9106244364408553e-14
y_9_0_0 0
y_9_0_1 0
y_9_0_2 0
y_9_1_0 0
y_9_1_1 -1.8880730312531568e-14
y_9_1_2 0
y_9_2_0 0
y_9_2_1 -1.9949319973733282e-16
y_9_2_2 0
y_9_3_0 0
y_9_3_1 1.0000000000001619e+00
y_9_3_2 0
y_9_4_0 0
y_9_4_1 -1.4253008495668240e-13
y_9_4_2 0
y_10_0_0 0
y_10_0_1 0
y_10_0_2 0
y_10_1_0 1
y_10_1_1 0
y_10_1_2 0
y_10_2_0 0
y_10_2_1 0
y_10_2_2 0
y_10_3_0 0
y_10_3_1 0
y_10_3_2 0
y_10_4_0 0
y_10_4_1 0
y_10_4_2 0
y_11_0_0 0
y_11_0_1 0
y_11_0_2 0
y_11_1_0 1
y_11_1_1 0
y_11_1_2 0
y_11_2_0 0
y_11_2_1 0
y_11_2_2 0
y_11_3_0 0
y_11_3_1 0
y_11_3_2 0
y_11_4_0 0
y_11_4_1 0
y_11_4_2 0
y_12_0_0 0
y_12_0_1 0
y_12_0_2 0
y_12_1_0 0
y_12_1_1 0
y_12_1_2 0
y_12_2_0 0
y_12_2_1 1
y_12_2_2 0
y_12_3_0 0
y_12_3_1 0
y_12_3_2 0
y_12_4_0 0
y_12_4_1 0
y_12_4_2 0
y_13_0_0 0
y_13_0_1 0
y_13_0_2 0
y_13_1_0 0
y_13_1_1 0
y_13_1_2 0
y_13_2_0 0
y_13_2_1 1
y_13_2_2 0
y_13_3_0 0
y_13_3_1 0
y_13_3_2 0
y_13_4_0 0
y_13_4_1 1.8957385650585511e-13
y_13_4_2 -3.7917144171925349e-13
y_14_0_0 0
y_14_0_1 1
y_14_0_2 0
y_14_1_0 0
y_14_1_1 0
y_14_1_2 0
y_14_2_0 0
y_14_2_1 0
y_14_2_2 0
y_14_3_0 0
y_14_3_1 0
y_14_3_2 0
y_14_4_0 0
y_14_4_1 0
y_14_4_2 -3.7917144171925349e-13
y_15_0_0 0
y_15_0_1 0
y_15_0_2 0
y_15_1_0 1
y_15_1_1 0
y_15_1_2 0
y_15_2_0 0
y_15_2_1 0
y_15_2_2 0
y_15_3_0 0
y_15_3_1 0
y_15_3_2 0
y_15_4_0 0
y_15_4_1 1.8957385650585508e-13
y_15_4_2 0
x_0_1_0_0 0
x_0_1_0_1 1
x_0_1_0_2 0
x_0_1_1_0 0
x_0_1_1_1 0
x_0_1_1_2 0
x_0_1_2_0 0
x_0_1_2_1 0
x_0_1_2_2 0
x_0_1_3_0 0
x_0_1_3_1 0
x_0_1_3_2 0
x_0_1_4_0 0
x_0_1_4_1 0
x_0_1_4_2 0
x_0_2_0_0 1
x_0_2_0_1 0
x_0_2_0_2 0
x_0_2_1_0 0
x_0_2_1_1 0
x_0_2_1_2 0
x_0_2_2_0 0
x_0_2_2_1 0
x_0_2_2_2 0
x_0_2_3_0 0
x_0_2_3_1 0
x_0_2_3_2 0
x_0_2_4_0 0
x_0_2_4_1 0
x_0_2_4_2 0
x_0_3_0_0 3.2626332191476592e-13
x_0_3_0_1 0
x_0_3_0_2 0
x_0_3_1_0 0
x_0_3_1_1 0
x_0_3_1_2 0
x_0_3_2_0 0
x_0_3_2_1 0
x_0_3_2_2 0
x_0_3_3_0 0
x_0_3_3_1 0
x_0_3_3_2 0
x_0_3_4_0 0
x_0_3_4_1 0
x_0_3_4_2 0
x_0_4_0_0 0
x_0_4_0_1 1
x_0_4_0_2 0
x_0_4_1_0 0
x_0_4_1_1 0
x_0_4_1_2 0
x_0_4_2_0 0
x_0_4_2_1 0
x_0_4_2_2 0
x_0_4_3_0 0
x_0_4_3_1 0
x_0_4_3_2 0
x_0_4_4_0 0
x_0_4_4_1 0
x_0_4_4_2 0
x_0_5_0_0 9.9999999999994860e-01
x_0_5_0_1 0
x_0_5_0_2 0
x_0_5_1_0 7.5855988157513821e-13
x_0_5_1_1 0
x_0_5_1_2 0
x_0_5_2_0 0
x_0_5_2_1 0
x_0_5_2_2 0
x_0_5_3_0 0
x_0_5_3_1 0
x_0_5_3_2 1.2417844530432376e-13
x_0_5_4_0 0
x_0_5_4_1 0
x_0_5_4_2 0
x_0_6_0_0 0
x_0_6_0_1 0
x_0_6_0_2 0
x_0_6_1_0 9.9999999999962075e-01
x_0_6_1_1 0
x_0_6_1_2 0
x_0_6_2_0 0
x_0_6_2_1 0
x_0_6_2_2 0
x_0_6_3_0 0
x_0_6_3_1 0
x_0_6_3_2 0
x_0_6_4_0 0
x_0_6_4_1 0
x_0_6_4_2 0
x_0_7_0_0 -4.5395631698141869e-13
x_0_7_0_1 0
x_0_7_0_2 0
x_0_7_1_0 0
x_0_7_1_1 2.0000000000004170e+00
x_0_7_1_2 0
x_0_7_2_0 0
x_0_7_2_1 3.4694469519536142e-18
x_0_7_2_2 -8.7335347287442744e-13
x_0_7_3_0 0
x_0_7_3_1 3.7562834787063792e-14
x_0_7_3_2 0
x_0_7_4_0 0
x_0_7_4_1 -4.5432754780527773e-13
x_0_7_4_2 0
x_0_8_0_0 1.7915877115193268e-13
x_0_8_0_1 0
x_0_8_0_2 0
x_0_8_1_0 0
x_0_8_1_1 0
x_0_8_1_2 0
x_0_8_2_0 0
x_0_8_2_1 -3.4694469519536142e-18
x_0_8_2_2 0
x_0_8_3_0 0
x_0_8_3_1 9.9999999999983913e-01
x_0_8_3_2 1.2417844530432376e-13
x_0_8_4_0 0
x_0_8_4_1 6.4357547069349152e-13
x_0_8_4_2 1.9741153156616065e-14
x_0_9_0_0 0
x_0_9_0_1 0
x_0_9_0_2 0
x_0_9_1_0 0
x_0_9_1_1 -3.7761460625063137e-14
x_0_9_1_2 0
x_0_9_2_0 0
x_0_9_2_1 0
x_0_9_2_2 0
x_0_9_3_0 0
x_0_9_3_1 1.0000000000001619e+00
x_0_9_3_2 0
x_0_9_4_0 0
x_0_9_4_1 0
x_0_9_4_2 0
x_0_10_0_0 0
x_0_10_0_1 0
x_0_10_0_2 0
x_0_10_1_0 0
x_0_10_1_1 0
x_0_10_1_2 0
x_0_10_2_0 0
x_0_10_2_1 0
x_0_10_2_2 0
x_0_10_3_0 0
x_0_10_3_1 0
x_0_10_3_2 0
x_0_10_4_0 0
x_0_10_4_1 0
x_0_10_4_2 0
x_0_11_0_0 0
x_0_11_0_1 0
x_0_11_0_2 0
x_0_11_1_0 9.9999999999962064e-01
x_0_11_1_1 0
x_0_11_1_2 0
x_0_11_2_0 0
x_0_11_2_1 0
x_0_11_2_2 0
x_0_11_3_0 0
x_0_11_3_1 0
x_0_11_3_2 0
x_0_11_4_0 0
x_0_11_4_1 0
x_0_11_4_2 0
x_0_12_0_0 0
x_0_12_0_1 0
x_0_12_0_2 0
x_0_12_1_0 0
x_0_12_1_1 0
x_0_12_1_2 0
x_0_12_2_0 0
x_0_12_2_1 1.0000000000000002e+00
x_0_12_2_2 0
x_0_12_3_0 0
x_0_12_3_1 0
x_0_12_3_2 0
x_0_12_4_0 0
x_0_12_4_1 0
x_0_12_4_2 0
x_0_13_0_0 0
x_0_13_0_1 0
x_0_13_0_2 0
x_0_13_1_0 0
x_0_13_1_1 0
x_0_13_1_2 0
x_0_13_2_0 0
x_0_13_2_1 1
x_0_13_2_2 0
x_0_13_3_0 0
x_0_13_3_1 0
x_0_13_3_2 0
x_0_13_4_0 0
x_0_13_4_1 0
x_0_13_4_2 0
x_0_14_0_0 0
x_0_14_0_1 0
x_0_14_0_2 0
x_0_14_1_0 0
x_0_14_1_1 0
x_0_14_1_2 0
x_0_14_2_0 0
x_0_14_2_1 0
x_0_14_2_2 0
x_0_14_3_0 0
x_0_14_3_1 0
x_0_14_3_2 0
x_0_14_4_0 0
x_0_14_4_1 0
x_0_14_4_2 0
x_0_15_0_0 0
x_0_15_0_1 0
x_0_15_0_2 0
x_0_15_1_0 0
x_0_15_1_1 0
x_0_15_1_2 0
x_0_15_2_0 0
x_0_15_2_1 0
x_0_15_2_2 0
x_0_15_3_0 0
x_0_15_3_1 0
x_0_15_3_2 0
x_0_15_4_0 0
x_0_15_4_1 0
x_0_15_4_2 0
x_1_2_0_0 0
x_1_2_0_1 0
x_1_2_0_2 0
x_1_2_1_0 0
x_1_2_1_1 0
x_1_2_1_2 0
x_1_2_2_0 0
x_1_2_2_1 0
x_1_2_2_2 0
x_1_2_3_0 0
x_1_2_3_1 0
x_1_2_3_2 0
x_1_2_4_0 0
x_1_2_4_1 0
x_1_2_4_2 0
x_1_3_0_0 0
x_1_3_0_1 0
x_1_3_0_2 0
x_1_3_1_0 0
x_1_3_1_1 0
x_1_3_1_2 0
x_1_3_2_0 0
x_1_3_2_1 0
x_1_3_2_2 0
x_1_3_3_0 0
x_1_3_3_1 0
x_1_3_3_2 0
x_1_3_4_0 0
x_1_3_4_1 0
x_1_3_4_2 0
x_1_4_0_0 0
x_1_4_0_1 0
x_1_4_0_2 0
x_1_4_1_0 0
x_1_4_1_1 0
x_1_4_1_2 0
x_1_4_2_0 0
x_1_4_2_1 0
x_1_4_2_2 0
x_1_4_3_0 0
x_1_4_3_1 0
x_1_4_3_2 0
x_1_4_4_0 0
x_1_4_4_1 0
x_1_4_4_2 0
x_1_5_0_0 0
x_1_5_0_1 0
x_1_5_0_2 0
x_1_5_1_0 0
x_1_5_1_1 0
x_1_5_1_2 0
x_1_5_2_0 0
x_1_5_2_1 0
x_1_5_2_2 0
x_1_5_3_0 0
x_1_5_3_1 0
x_1_5_3_2 0
x_1_5_4_0 0
x_1_5_4_1 0
x_1_5_4_2 0
x_1_6_0_0 0
x_1_6_0_1 0
x_1_6_0_2 0
x_1_6_1_0 0
x_1_6_1_1 0
x_1_6_1_2 0
x_1_6_2_0 0
x_1_6_2_1 0
x_1_6_2_2 0
x_1_6_3_0 0
x_1_6_3_1 0
x_1_6_3_2 0
x_1_6_4_0 0
x_1_6_4_1 0
x_1_6_4_2 0
x_1_7_0_0 0
x_1_7_0_1 0
x_1_7_0_2 0
x_1_7_1_0 0
x_1_7_1_1 0
x_1_7_1_2 0
x_1_7_2_0 0
x_1_7_2_1 0
x_1_7_2_2 0
x_1_7_3_0 0
x_1_7_3_1 0
x_1_7_3_2 0
x_1_7_4_0 0
x_1_7_4_1 0
x_1_7_4_2 0
x_1_8_0_0 0
x_1_8_0_1 0
x_1_8_0_2 0
x_1_8_1_0 0
x_1_8_1_1 0
x_1_8_1_2 0
x_1_8_2_0 0
x_1_8_2_1 0
x_1_8_2_2 0
x_1_8_3_0 0
x_1_8_3_1 0
x_1_8_3_2 0
x_1_8_4_0 0
x_1_8_4_1 0
x_1_8_4_2 0
x_1_9_0_0 0
x_1_9_0_1 0
x_1_9_0_2 0
x_1_9_1_0 0
x_1_9_1_1 0
x_1_9_1_2 0
x_1_9_2_0 0
x_1_9_2_1 0
x_1_9_2_2 0
x_1_9_3_0 0
x_1_9_3_1 0
x_1_9_3_2 0
x_1_9_4_0 0
x_1_9_4_1 0
x_1_9_4_2 0
x_1_10_0_0 0
x_1_10_0_1 0
x_1_10_0_2 0
x_1_10_1_0 0
x_1_10_1_1 0
x_1_10_1_2 0
x_1_10_2_0 0
x_1_10_2_1 0
x_1_10_2_2 0
x_1_10_3_0 0
x_1_10_3_1 0
x_1_10_3_2 0
x_1_10_4_0 0
x_1_10_4_1 0
x_1_10_4_2 0
x_1_11_0_0 0
x_1_11_0_1 0
x_1_11_0_2 0
x_1_11_1_0 0
x_1_11_1_1 0
x_1_11_1_2 0
x_1_11_2_0 0
x_1_11_2_1 0
x_1_11_2_2 0
x_1_11_3_0 0
x_1_11_3_1 0
x_1_11_3_2 0
x_1_11_4_0 0
x_1_11_4_1 0
x_1_11_4_2 0
x_1_12_0_0 0
x_1_12_0_1 0
x_1_12_0_2 0
x_1_12_1_0 0
x_1_12_1_1 0
x_1_12_1_2 0
x_1_12_2_0 0
x_1_12_2_1 0
x_1_12_2_2 0
x_1_12_3_0 0
x_1_12_3_1 0
x_1_12_3_2 0
x_1_12_4_0 0
x_1_12_4_1 0
x_1_12_4_2 0
x_1_13_0_0 0
x_1_13_0_1 0
x_1_13_0_2 0
x_1_13_1_0 0
x_1_13_1_1 0
x_1_13_1_2 0
x_1_13_2_0 0
x_1_13_2_1 0
x_1_13_2_2 0
x_1_13_3_0 0
x_1_13_3_1 0
x_1_13_3_2 0
x_1_13_4_0 0
x_1_13_4_1 0
x_1_13_4_2 0
x_1_14_0_0 0
x_1_14_0_1 1
x_1_14_0_2 0
x_1_14_1_0 0
x_1_14_1_1 0
x_1_14_1_2 0
x_1_14_2_0 0
x_1_14_2_1 0
x_1_14_2_2 0
x_1_14_3_0 0
x_1_14_3_1 0
x_1_14_3_2 0
x_1_14_4_0 0
x_1_14_4_1 0
x_1_14_4_2 0
x_1_15_0_0 0
x_1_15_0_1 0
x_1_15_0_2 0
x_1_15_1_0 0
x_1_15_1_1 0
x_1_15_1_2 0
x_1_15_2_0 0
x_1_15_2_1 0
x_1_15_2_2 0
x_1_15_3_0 0
x_1_15_3_1 0
x_1_15_3_2 0
x_1_15_4_0 0
x_1_15_4_1 0
x_1_15_4_2 0
x_2_3_0_0 1
x_2_3_0_1 0
x_2_3_0_2 0
x_2_3_1_0 0
x_2_3_1_1 0
x_2_3_1_2 0
x_2_3_2_0 0
x_2_3_2_1 0
x_2_3_2_2 0
x_2_3_3_0 0
x_2_3_3_1 0
x_2_3_3_2 0
x_2_3_4_0 0
x_2_3_4_1 0
x_2_3_4_2 0
x_2_4_0_0 0
x_2_4_0_1 0
x_2_4_0_2 0
x_2_4_1_0 0
x_2_4_1_1 0
x_2_4_1_2 0
x_2_4_2_0 0
x_2_4_2_1 0
x_2_4_2_2 0
x_2_4_3_0 0
x_2_4_3_1 0
x_2_4_3_2 0
x_2_4_4_0 0
x_2_4_4_1 0
x_2_4_4_2 0
x_2_5_0_0 0
x_2_5_0_1 0
x_2_5_0_2 0
x_2_5_1_0 0
x_2_5_1_1 0
x_2_5_1_2 0
x_2_5_2_0 0
x_2_5_2_1 0
x_2_5_2_2 0
x_2_5_3_0 0
x_2_5_3_1 0
x_2_5_3_2 0
x_2_5_4_0 0
x_2_5_4_1 0
x_2_5_4_2 0
x_2_6_0_0 0
x_2_6_0_1 0
x_2_6_0_2 0
x_2_6_1_0 0
x_2_6_1_1 0
x_2_6_1_2 0
x_2_6_2_0 0
x_2_6_2_1 0
x_2_6_2_2 0
x_2_6_3_0 0
x_2_6_3_1 0
x_2_6_3_2 0
x_2_6_4_0 0
x_2_6_4_1 0
x_2_6_4_2 0
x_2_7_0_0 0
x_2_7_0_1 0
x_2_7_0_2 0
x_2_7_1_0 0
x_2_7_1_1 0
x_2_7_1_2 0
x_2_7_2_0 0
x_2_7_2_1 0
x_2_7_2_2 0
x_2_7_3_0 0
x_2_7_3_1 0
x_2_7_3_2 0
x_2_7_4_0 0
x_2_7_4_1 0
x_2_7_4_2 0
x_2_8_0_0 0
x_2_8_0_1 0
x_2_8_0_2 0
x_2_8_1_0 0
x_2_8_1_1 0
x_2_8_1_2 0
x_2_8_2_0 0
x_2_8_2_1 0
x_2_8_2_2 0
x_2_8_3_0 0
x_2_8_3_1 0
x_2_8_3_2 0
x_2_8_4_0 0
x_2_8_4_1 0
x_2_8_4_2 0
x_2_9_0_0 0
x_2_9_0_1 0
x_2_9_0_2 0
x_2_9_1_0 0
x_2_9_1_1 0
x_2_9_1_2 0
x_2_9_2_0 0
x_2_9_2_1 0
x_2_9_2_2 0
x_2_9_3_0 0
x_2_9_3_1 0
x_2_9_3_2 0
x_2_9_4_0 0
x_2_9_4_1 0
x_2_9_4_2 0
x_2_10_0_0 0
x_2_10_0_1 0
x_2_10_0_2 0
x_2_10_1_0 0
x_2_10_1_1 0
x_2_10_1_2 0
x_2_10_2_0 0
x_2_10_2_1 0
x_2_10_2_2 0
x_2_10_3_0 0
x_2_10_3_1 0
x_2_10_3_2 0
x_2_10_4_0 0
x_2_10_4_1 0
x_2_10_4_2 0
x_2_11_0_0 0
x_2_11_0_1 0
x_2_11_0_2 0
x_2_11_1_0 0
x_2_11_1_1 0
x_2_11_1_2 0
x_2_11_2_0 0
x_2_11_2_1 0
x_2_11_2_2 0
x_2_11_3_0 0
x_2_11_3_1 0
x_2_11_3_2 0
x_2_11_4_0 0
x_2_11_4_1 0
x_2_11_4_2 0
x_2_12_0_0 0
x_2_12_0_1 0
x_2_12_0_2 0
x_2_12_1_0 0
x_2_12_1_1 0
x_2_12_1_2 0
x_2_12_2_0 0
x_2_12_2_1 0
x_2_12_2_2 0
x_2_12_3_0 0
x_2_12_3_1 0
x_2_12_3_2 0
x_2_12_4_0 0
x_2_12_4_1 0
x_2_12_4_2 0
x_2_13_0_0 0
x_2_13_0_1 0
x_2_13_0_2 0
x_2_13_1_0 0
x_2_13_1_1 0
x_2_13_1_2 0
x_2_13_2_0 0
x_2_13_2_1 0
x_2_13_2_2 0
x_2_13_3_0 0
x_2_13_3_1 0
x_2_13_3_2 0
x_2_13_4_0 0
x_2_13_4_1 0
x_2_13_4_2 0
x_2_14_0_0 0
x_2_14_0_1 0
x_2_14_0_2 0
x_2_14_1_0 0
x_2_14_1_1 0
x_2_14_1_2 0
x_2_14_2_0 0
x_2_14_2_1 0
x_2_14_2_2 0
x_2_14_3_0 0
x_2_14_3_1 0
x_2_14_3_2 0
x_2_14_4_0 0
x_2_14_4_1 0
x_2_14_4_2 0
x_2_15_0_0 0
x_2_15_0_1 0
x_2_15_0_2 0
x_2_15_1_0 0
x_2_15_1_1 0
x_2_15_1_2 0
x_2_15_2_0 0
x_2_15_2_1 0
x_2_15_2_2 0
x_2_15_3_0 0
x_2_15_3_1 0
x_2_15_3_2 0
x_2_15_4_0 0
x_2_15_4_1 0
x_2_15_4_2 0
x_3_4_0_0 0
x_3_4_0_1 0
x_3_4_0_2 0
x_3_4_1_0 0
x_3_4_1_1 0
x_3_4_1_2 0
x_3_4_2_0 0
x_3_4_2_1 0
x_3_4_2_2 0
x_3_4_3_0 0
x_3_4_3_1 0
x_3_4_3_2 0
x_3_4_4_0 0
x_3_4_4_1 0
x_3_4_4_2 0
x_3_5_0_0 9.9999999999972156e-01
x_3_5_0_1 0
x_3_5_0_2 0
x_3_5_1_0 0
x_3_5_1_1 0
x_3_5_1_2 0
x_3_5_2_0 0
x_3_5_2_1 0
x_3_5_2_2 0
x_3_5_3_0 0
x_3_5_3_1 0
x_3_5_3_2 0
x_3_5_4_0 0
x_3_5_4_1 0
x_3_5_4_2 0
x_3_6_0_0 0
x_3_6_0_1 0
x_3_6_0_2 0
x_3_6_1_0 0
x_3_6_1_1 0
x_3_6_1_2 0
x_3_6_2_0 0
x_3_6_2_1 0
x_3_6_2_2 0
x_3_6_3_0 0
x_3_6_3_1 0
x_3_6_3_2 0
x_3_6_4_0 0
x_3_6_4_1 0
x_3_6_4_2 0
x_3_7_0_0 0
x_3_7_0_1 0
x_3_7_0_2 0
x_3_7_1_0 0
x_3_7_1_1 0
x_3_7_1_2 0
x_3_7_2_0 0
x_3_7_2_1 0
x_3_7_2_2 0
x_3_7_3_0 0
x_3_7_3_1 0
x_3_7_3_2 0
x_3_7_4_0 0
x_3_7_4_1 0
x_3_7_4_2 0
x_3_8_0_0 -4.7708365036314149e-14
x_3_8_0_1 0
x_3_8_0_2 0
x_3_8_1_0 0
x_3_8_1_1 0
x_3_8_1_2 0
x_3_8_2_0 0
x_3_8_2_1 0
x_3_8_2_2 0
x_3_8_3_0 0
x_3_8_3_1 0
x_3_8_3_2 0
x_3_8_4_0 0
x_3_8_4_1 0
x_3_8_4_2 0
x_3_9_0_0 0
x_3_9_0_1 0
x_3_9_0_2 0
x_3_9_1_0 0
x_3_9_1_1 0
x_3_9_1_2 0
x_3_9_2_0 0
x_3_9_2_1 0
x_3_9_2_2 0
x_3_9_3_0 0
x_3_9_3_1 0
x_3_9_3_2 0
x_3_9_4_0 0
x_3_9_4_1 0
x_3_9_4_2 0
x_3_10_0_0 0
x_3_10_0_1 0
x_3_10_0_2 0
x_3_10_1_0 0
x_3_10_1_1 0
x_3_10_1_2 0
x_3_10_2_0 0
x_3_10_2_1 0
x_3_10_2_2 0
x_3_10_3_0 0
x_3_10_3_1 0
x_3_10_3_2 0
x_3_10_4_0 0
x_3_10_4_1 0
x_3_10_4_2 0
x_3_11_0_0 0
x_3_11_0_1 0
x_3_11_0_2 0
x_3_11_1_0 0
x_3_11_1_1 0
x_3_11_1_2 0
x_3_11_2_0 0
x_3_11_2_1 0
x_3_11_2_2 0
x_3_11_3_0 0
x_3_11_3_1 0
x_3_11_3_2 0
x_3_11_4_0 0
x_3_11_4_1 0
x_3_11_4_2 0
x_3_12_0_0 0
x_3_12_0_1 0
x_3_12_0_2 0
x_3_12_1_0 0
x_3_12_1_1 0
x_3_12_1_2 0
x_3_12_2_0 0
x_3_12_2_1 0
x_3_12_2_2 0
x_3_12_3_0 0
x_3_12_3_1 0
x_3_12_3_2 0
x_3_12_4_0 0
x_3_12_4_1 0
x_3_12_4_2 0
x_3_13_0_0 0
x_3_13_0_1 0
x_3_13_0_2 0
x_3_13_1_0 0
x_3_13_1_1 0
x_3_13_1_2 0
x_3_13_2_0 0
x_3_13_2_1 0
x_3_13_2_2 0
x_3_13_3_0 0
x_3_13_3_1 0
x_3_13_3_2 0
x_3_13_4_0 0
x_3_13_4_1 0
x_3_13_4_2 0
x_3_14_0_0 0
x_3_14_0_1 0
x_3_14_0_2 0
x_3_14_1_0 0
x_3_14_1_1 0
x_3_14_1_2 0
x_3_14_2_0 0
x_3_14_2_1 0
x_3_14_2_2 0
x_3_14_3_0 0
x_3_14_3_1 0
x_3_14_3_2 0
x_3_14_4_0 0
x_3_14_4_1 0
x_3_14_4_2 0
x_3_15_0_0 0
x_3_15_0_1 0
x_3_15_0_2 0
x_3_15_1_0 0
x_3_15_1_1 0
x_3_15_1_2 0
x_3_15_2_0 0
x_3_15_2_1 0
x_3_15_2_2 0
x_3_15_3_0 0
x_3_15_3_1 0
x_3_15_3_2 0
x_3_15_4_0 0
x_3_15_4_1 0
x_3_15_4_2 0
x_4_5_0_0 0
x_4_5_0_1 0
x_4_5_0_2 0
x_4_5_1_0 0
x_4_5_1_1 0
x_4_5_1_2 0
x_4_5_2_0 0
x_4_5_2_1 0
x_4_5_2_2 0
x_4_5_3_0 0
x_4_5_3_1 0
x_4_5_3_2 0
x_4_5_4_0 0
x_4_5_4_1 0
x_4_5_4_2 0
x_4_6_0_0 0
x_4_6_0_1 0
x_4_6_0_2 0
x_4_6_1_0 0
x_4_6_1_1 0
x_4_6_1_2 0
x_4_6_2_0 0
x_4_6_2_1 0
x_4_6_2_2 0
x_4_6_3_0 0
x_4_6_3_1 0
x_4_6_3_2 0
x_4_6_4_0 0
x_4_6_4_1 0
x_4_6_4_2 0
x_4_7_0_0 0
x_4_7_0_1 0
x_4_7_0_2 0
x_4_7_1_0 0
x_4_7_1_1 0
x_4_7_1_2 0
x_4_7_2_0 0
x_4_7_2_1 0
x_4_7_2_2 0
x_4_7_3_0 0
x_4_7_3_1 0
x_4_7_3_2 0
x_4_7_4_0 0
x_4_7_4_1 0
x_4_7_4_2 0
x_4_8_0_0 0
x_4_8_0_1 0
x_4_8_0_2 0
x_4_8_1_0 0
x_4_8_1_1 0
x_4_8_1_2 0
x_4_8_2_0 0
x_4_8_2_1 0
x_4_8_2_2 0
x_4_8_3_0 0
x_4_8_3_1 0
x_4_8_3_2 0
x_4_8_4_0 0
x_4_8_4_1 0
x_4_8_4_2 0
x_4_9_0_0 0
x_4_9_0_1 0
x_4_9_0_2 0
x_4_9_1_0 0
x_4_9_1_1 0
x_4_9_1_2 0
x_4_9_2_0 0
x_4_9_2_1 0
x_4_9_2_2 0
x_4_9_3_0 0
x_4_9_3_1 0
x_4_9_3_2 0
x_4_9_4_0 0
x_4_9_4_1 0
x_4_9_4_2 0
x_4_10_0_0 0
x_4_10_0_1 0
x_4_10_0_2 0
x_4_10_1_0 1
x_4_10_1_1 0
x_4_10_1_2 0
x_4_10_2_0 0
x_4_10_2_1 0
x_4_10_2_2 0
x_4_10_3_0 0
x_4_10_3_1 0
x_4_10_3_2 0
x_4_10_4_0 0
x_4_10_4_1 0
x_4_10_4_2 0
x_4_11_0_0 0
x_4_11_0_1 0
x_4_11_0_2 0
x_4_11_1_0 1
x_4_11_1_1 0
x_4_11_1_2 0
x_4_11_2_0 0
x_4_11_2_1 0
x_4_11_2_2 0
x_4_11_3_0 0
x_4_11_3_1 0
x_4_11_3_2 0
x_4_11_4_0 0
x_4_11_4_1 0
x_4_11_4_2 0
x_4_12_0_0 0
x_4_12_0_1 0
x_4_12_0_2 0
x_4_12_1_0 0
x_4_12_1_1 0
x_4_12_1_2 0
x_4_12_2_0 0
x_4_12_2_1 0
x_4_12_2_2 0
x_4_12_3_0 0
x_4_12_3_1 0
x_4_12_3_2 0
x_4_12_4_0 0
x_4_12_4_1 0
x_4_12_4_2 0
x_4_13_0_0 0
x_4_13_0_1 0
x_4_13_0_2 0
x_4_13_1_0 0
x_4_13_1_1 0
x_4_13_1_2 0
x_4_13_2_0 0
x_4_13_2_1 0
x_4_13_2_2 0
x_4_13_3_0 0
x_4_13_3_1 0
x_4_13_3_2 0
x_4_13_4_0 0
x_4_13_4_1 0
x_4_13_4_2 0
x_4_14_0_0 0
x_4_14_0_1 1
x_4_14_0_2 0
x_4_14_1_0 0
x_4_14_1_1 0
x_4_14_1_2 0
x_4_14_2_0 0
x_4_14_2_1 0
x_4_14_2_2 0
x_4_14_3_0 0
x_4_14_3_1 0
x_4_14_3_2 0
x_4_14_4_0 0
x_4_14_4_1 0
x_4_14_4_2 0
x_4_15_0_0 0
x_4_15_0_1 0
x_4_15_0_2 0
x_4_15_1_0 0
x_4_15_1_1 0
x_4_15_1_2 0
x_4_15_2_0 0
x_4_15_2_1 0
x_4_15_2_2 0
x_4_15_3_0 0
x_4_15_3_1 0
x_4_15_3_2 0
x_4_15_4_0 0
x_4_15_4_1 0
x_4_15_4_2 0
x_5_6_0_0 0
x_5_6_0_1 0
x_5_6_0_2 0
x_5_6_1_0 0
x_5_6_1_1 0
x_5_6_1_2 0
x_5_6_2_0 0
x_5_6_2_1 0
x_5_6_2_2 0
x_5_6_3_0 0
x_5_6_3_1 0
x_5_6_3_2 0
x_5_6_4_0 0
x_5_6_4_1 0
x_5_6_4_2 0
x_5_7_0_0 0
x_5_7_0_1 0
x_5_7_0_2 0
x_5_7_1_0 0
x_5_7_1_1 0
x_5_7_1_2 0
x_5_7_2_0 0
x_5_7_2_1 0
x_5_7_2_2 0
x_5_7_3_0 0
x_5_7_3_1 0
x_5_7_3_2 0
x_5_7_4_0 0
x_5_7_4_1 0
x_5_7_4_2 0
x_5_8_0_0 -2.2706142521755623e-13
x_5_8_0_1 0
x_5_8_0_2 0
x_5_8_1_0 0
x_5_8_1_1 0
x_5_8_1_2 0
x_5_8_2_0 0
x_5_8_2_1 0
x_5_8_2_2 0
x_5_8_3_0 0
x_5_8_3_1 0
x_5_8_3_2 -1.2417844530432376e-13
x_5_8_4_0 0
x_5_8_4_1 0
x_5_8_4_2 0
x_5_9_0_0 0
x_5_9_0_1 0
x_5_9_0_2 0
x_5_9_1_0 0
x_5_9_1_1 0
x_5_9_1_2 0
x_5_9_2_0 0
x_5_9_2_1 0
x_5_9_2_2 0
x_5_9_3_0 0
x_5_9_3_1 0
x_5_9_3_2 0
x_5_9_4_0 0
x_5_9_4_1 0
x_5_9_4_2 0
x_5_10_0_0 0
x_5_10_0_1 0
x_5_10_0_2 0
x_5_10_1_0 0
x_5_10_1_1 0
x_5_10_1_2 0
x_5_10_2_0 0
x_5_10_2_1 0
x_5_10_2_2 0
x_5_10_3_0 0
x_5_10_3_1 0
x_5_10_3_2 0
x_5_10_4_0 0
x_5_10_4_1 0
x_5_10_4_2 0
x_5_11_0_0 0
x_5_11_0_1 0
x_5_11_0_2 0
x_5_11_1_0 0
x_5_11_1_1 0
x_5_11_1_2 0
x_5_11_2_0 0
x_5_11_2_1 0
x_5_11_2_2 0
x_5_11_3_0 0
x_5_11_3_1 0
x_5_11_3_2 0
x_5_11_4_0 0
x_5_11_4_1 0
x_5_11_4_2 0
x_5_12_0_0 0
x_5_12_0_1 0
x_5_12_0_2 0
x_5_12_1_0 0
x_5_12_1_1 0
x_5_12_1_2 0
x_5_12_2_0 0
x_5_12_2_1 0
x_5_12_2_2 0
x_5_12_3_0 0
x_5_12_3_1 0
x_5_12_3_2 0
x_5_12_4_0 0
x_5_12_4_1 0
x_5_12_4_2 0
x_5_13_0_0 0
x_5_13_0_1 0
x_5_13_0_2 0
x_5_13_1_0 0
x_5_13_1_1 0
x_5_13_1_2 0
x_5_13_2_0 0
x_5_13_2_1 0
x_5_13_2_2 0
x_5_13_3_0 0
x_5_13_3_1 0
x_5_13_3_2 0
x_5_13_4_0 0
x_5_13_4_1 0
x_5_13_4_2 0
x_5_14_0_0 0
x_5_14_0_1 0
x_5_14_0_2 0
x_5_14_1_0 0
x_5_14_1_1 0
x_5_14_1_2 0
x_5_14_2_0 0
x_5_14_2_1 0
x_5_14_2_2 0
x_5_14_3_0 0
x_5_14_3_1 0
x_5_14_3_2 0
x_5_14_4_0 0
x_5_14_4_1 0
x_5_14_4_2 0
x_5_15_0_0 0
x_5_15_0_1 0
x_5_15_0_2 0
x_5_15_1_0 0
x_5_15_1_1 0
x_5_15_1_2 0
x_5_15_2_0 0
x_5_15_2_1 0
x_5_15_2_2 0
x_5_15_3_0 0
x_5_15_3_1 0
x_5_15_3_2 0
x_5_15_4_0 0
x_5_15_4_1 0
x_5_15_4_2 0
x_6_7_0_0 0
x_6_7_0_1 0
x_6_7_0_2 0
x_6_7_1_0 0
x_6_7_1_1 0
x_6_7_1_2 0
x_6_7_2_0 0
x_6_7_2_1 0
x_6_7_2_2 0
x_6_7_3_0 0
x_6_7_3_1 0
x_6_7_3_2 0
x_6_7_4_0 0
x_6_7_4_1 0
x_6_7_4_2 0
x_6_8_0_0 0
x_6_8_0_1 0
x_6_8_0_2 0
x_6_8_1_0 0
x_6_8_1_1 0
x_6_8_1_2 0
x_6_8_2_0 0
x_6_8_2_1 0
x_6_8_2_2 0
x_6_8_3_0 0
x_6_8_3_1 0
x_6_8_3_2 0
x_6_8_4_0 0
x_6_8_4_1 0
x_6_8_4_2 0
x_6_9_0_0 0
x_6_9_0_1 0
x_6_9_0_2 0
x_6_9_1_0 0
x_6_9_1_1 0
x_6_9_1_2 0
x_6_9_2_0 0
x_6_9_2_1 5.5511151231257827e-17
x_6_9_2_2 0
x_6_9_3_0 0
x_6_9_3_1 0
x_6_9_3_2 0
x_6_9_4_0 0
x_6_9_4_1 3.7914771301171021e-13
x_6_9_4_2 0
x_6_10_0_0 0
x_6_10_0_1 0
x_6_10_0_2 0
x_6_10_1_0 0
x_6_10_1_1 0
x_6_10_1_2 0
x_6_10_2_0 0
x_6_10_2_1 0
x_6_10_2_2 0
x_6_10_3_0 0
x_6_10_3_1 0
x_6_10_3_2 0
x_6_10_4_0 0
x_6_10_4_1 0
x_6_10_4_2 0
x_6_11_0_0 0
x_6_11_0_1 0
x_6_11_0_2 0
x_6_11_1_0 0
x_6_11_1_1 0
x_6_11_1_2 0
x_6_11_2_0 0
x_6_11_2_1 0
x_6_11_2_2 0
x_6_11_3_0 0
x_6_11_3_1 0
x_6_11_3_2 0
x_6_11_4_0 0
x_6_11_4_1 0
x_6_11_4_2 0
x_6_12_0_0 0
x_6_12_0_1 0
x_6_12_0_2 0
x_6_12_1_0 0
x_6_12_1_1 0
x_6_12_1_2 0
x_6_12_2_0 0
x_6_12_2_1 0
x_6_12_2_2 0
x_6_12_3_0 0
x_6_12_3_1 0
x_6_12_3_2 0
x_6_12_4_0 0
x_6_12_4_1 0
x_6_12_4_2 0
x_6_13_0_0 0
x_6_13_0_1 0
x_6_13_0_2 0
x_6_13_1_0 0
x_6_13_1_1 0
x_6_13_1_2 0
x_6_13_2_0 0
x_6_13_2_1 0
x_6_13_2_2 0
x_6_13_3_0 0
x_6_13_3_1 0
x_6_13_3_2 0
x_6_13_4_0 0
x_6_13_4_1 1.8957385650585513e-13
x_6_13_4_2 0
x_6_14_0_0 0
x_6_14_0_1 0
x_6_14_0_2 0
x_6_14_1_0 0
x_6_14_1_1 0
x_6_14_1_2 0
x_6_14_2_0 0
x_6_14_2_1 0
x_6_14_2_2 0
x_6_14_3_0 0
x_6_14_3_1 0
x_6_14_3_2 0
x_6_14_4_0 0
x_6_14_4_1 0
x_6_14_4_2 0
x_6_15_0_0 0
x_6_15_0_1 0
x_6_15_0_2 0
x_6_15_1_0 9.9999999999962064e-01
x_6_15_1_1 0
x_6_15_1_2 0
x_6_15_2_0 0
x_6_15_2_1 0
x_6_15_2_2 0
x_6_15_3_0 0
x_6_15_3_1 0
x_6_15_3_2 0
x_6_15_4_0 0
x_6_15_4_1 1.8957385650585508e-13
x_6_15_4_2 0
x_7_8_0_0 0
x_7_8_0_1 0
x_7_8_0_2 0
x_7_8_1_0 0
x_7_8_1_1 0
x_7_8_1_2 0
x_7_8_2_0 0
x_7_8_2_1 0
x_7_8_2_2 0
x_7_8_3_0 0
x_7_8_3_1 0
x_7_8_3_2 0
x_7_8_4_0 0
x_7_8_4_1 0
x_7_8_4_2 0
x_7_9_0_0 0
x_7_9_0_1 0
x_7_9_0_2 0
x_7_9_1_0 0
x_7_9_1_1 0
x_7_9_1_2 0
x_7_9_2_0 0
x_7_9_2_1 0
x_7_9_2_2 0
x_7_9_3_0 0
x_7_9_3_1 0
x_7_9_3_2 0
x_7_9_4_0 0
x_7_9_4_1 0
x_7_9_4_2 0
x_7_10_0_0 0
x_7_10_0_1 0
x_7_10_0_2 0
x_7_10_1_0 0
x_7_10_1_1 0
x_7_10_1_2 0
x_7_10_2_0 0
x_7_10_2_1 0
x_7_10_2_2 0
x_7_10_3_0 0
x_7_10_3_1 0
x_7_10_3_2 0
x_7_10_4_0 0
x_7_10_4_1 0
x_7_10_4_2 0
x_7_11_0_0 0
x_7_11_0_1 0
x_7_11_0_2 0
x_7_11_1_0 0
x_7_11_1_1 0
x_7_11_1_2 0
x_7_11_2_0 0
x_7_11_2_1 -3.4694469519536142e-18
x_7_11_2_2 0
x_7_11_3_0 0
x_7_11_3_1 0
x_7_11_3_2 0
x_7_11_4_0 0
x_7_11_4_1 0
x_7_11_4_2 0
x_7_12_0_0 0
x_7_12_0_1 0
x_7_12_0_2 0
x_7_12_1_0 0
x_7_12_1_1 0
x_7_12_1_2 0
x_7_12_2_0 0
x_7_12_2_1 0
x_7_12_2_2 0
x_7_12_3_0 0
x_7_12_3_1 0
x_7_12_3_2 0
x_7_12_4_0 0
x_7_12_4_1 0
x_7_12_4_2 0
x_7_13_0_0 0
x_7_13_0_1 0
x_7_13_0_2 0
x_7_13_1_0 0
x_7_13_1_1 0
x_7_13_1_2 0
x_7_13_2_0 0
x_7_13_2_1 0
x_7_13_2_2 0
x_7_13_3_0 0
x_7_13_3_1 0
x_7_13_3_2 0
x_7_13_4_0 0
x_7_13_4_1 0
x_7_13_4_2 0
x_7_14_0_0 0
x_7_14_0_1 0
x_7_14_0_2 0
x_7_14_1_0 0
x_7_14_1_1 0
x_7_14_1_2 0
x_7_14_2_0 0
x_7_14_2_1 0
x_7_14_2_2 0
x_7_14_3_0 0
x_7_14_3_1 0
x_7_14_3_2 0
x_7_14_4_0 0
x_7_14_4_1 0
x_7_14_4_2 0
x_7_15_0_0 0
x_7_15_0_1 0
x_7_15_0_2 0
x_7_15_1_0 0
x_7_15_1_1 0
x_7_15_1_2 0
x_7_15_2_0 0
x_7_15_2_1 0
x_7_15_2_2 0
x_7_15_3_0 0
x_7_15_3_1 0
x_7_15_3_2 0
x_7_15_4_0 0
x_7_15_4_1 0
x_7_15_4_2 0
x_8_9_0_0 0
x_8_9_0_1 0
x_8_9_0_2 0
x_8_9_1_0 0
x_8_9_1_1 0
x_8_9_1_2 0
x_8_9_2_0 0
x_8_9_2_1 -2.7755575615628914e-16
x_8_9_2_2 0
x_8_9_3_0 0
x_8_9_3_1 1.0000000000001619e+00
x_8_9_3_2 0
x_8_9_4_0 0
x_8_9_4_1 -6.6420133282285576e-13
x_8_9_4_2 0
x_8_10_0_0 0
x_8_10_0_1 0
x_8_10_0_2 0
x_8_10_1_0 0
x_8_10_1_1 0
x_8_10_1_2 0
x_8_10_2_0 0
x_8_10_2_1 0
x_8_10_2_2 0
x_8_10_3_0 0
x_8_10_3_1 0
x_8_10_3_2 0
x_8_10_4_0 0
x_8_10_4_1 0
x_8_10_4_2 0
x_8_11_0_0 0
x_8_11_0_1 0
x_8_11_0_2 0
x_8_11_1_0 0
x_8_11_1_1 0
x_8_11_1_2 0
x_8_11_2_0 0
x_8_11_2_1 0
x_8_11_2_2 0
x_8_11_3_0 0
x_8_11_3_1 0
x_8_11_3_2 0
x_8_11_4_0 0
x_8_11_4_1 0
x_8_11_4_2 0
x_8_12_0_0 0
x_8_12_0_1 0
x_8_12_0_2 0
x_8_12_1_0 0
x_8_12_1_1 0
x_8_12_1_2 0
x_8_12_2_0 0
x_8_12_2_1 0
x_8_12_2_2 0
x_8_12_3_0 0
x_8_12_3_1 0
x_8_12_3_2 0
x_8_12_4_0 0
x_8_12_4_1 0
x_8_12_4_2 0
x_8_13_0_0 0
x_8_13_0_1 0
x_8_13_0_2 0
x_8_13_1_0 0
x_8_13_1_1 0
x_8_13_1_2 0
x_8_13_2_0 0
x_8_13_2_1 0
x_8_13_2_2 0
x_8_13_3_0 0
x_8_13_3_1 0
x_8_13_3_2 0
x_8_13_4_0 0
x_8_13_4_1 0
x_8_13_4_2 0
x_8_14_0_0 0
x_8_14_0_1 0
x_8_14_0_2 0
x_8_14_1_0 0
x_8_14_1_1 0
x_8_14_1_2 0
x_8_14_2_0 0
x_8_14_2_1 0
x_8_14_2_2 0
x_8_14_3_0 0
x_8_14_3_1 0
x_8_14_3_2 0
x_8_14_4_0 0
x_8_14_4_1 0
x_8_14_4_2 0
x_8_15_0_0 0
x_8_15_0_1 0
x_8_15_0_2 0
x_8_15_1_0 0
x_8_15_1_1 0
x_8_15_1_2 0
x_8_15_2_0 0
x_8_15_2_1 0
x_8_15_2_2 0
x_8_15_3_0 0
x_8_15_3_1 0
x_8_15_3_2 0
x_8_15_4_0 0
x_8_15_4_1 0
x_8_15_4_2 0
x_9_10_0_0 0
x_9_10_0_1 0
x_9_10_0_2 0
x_9_10_1_0 0
x_9_10_1_1 0
x_9_10_1_2 0
x_9_10_2_0 0
x_9_10_2_1 0
x_9_10_2_2 0
x_9_10_3_0 0
x_9_10_3_1 0
x_9_10_3_2 0
x_9_10_4_0 0
x_9_10_4_1 0
x_9_10_4_2 0
x_9_11_0_0 0
x_9_11_0_1 0
x_9_11_0_2 0
x_9_11_1_0 0
x_9_11_1_1 0
x_9_11_1_2 0
x_9_11_2_0 0
x_9_11_2_1 0
x_9_11_2_2 0
x_9_11_3_0 0
x_9_11_3_1 0
x_9_11_3_2 0
x_9_11_4_0 0
x_9_11_4_1 0
x_9_11_4_2 0
x_9_12_0_0 0
x_9_12_0_1 0
x_9_12_0_2 0
x_9_12_1_0 0
x_9_12_1_1 0
x_9_12_1_2 0
x_9_12_2_0 0
x_9_12_2_1 0
x_9_12_2_2 0
x_9_12_3_0 0
x_9_12_3_1 0
x_9_12_3_2 0
x_9_12_4_0 0
x_9_12_4_1 0
x_9_12_4_2 0
x_9_13_0_0 0
x_9_13_0_1 0
x_9_13_0_2 0
x_9_13_1_0 0
x_9_13_1_1 0
x_9_13_1_2 0
x_9_13_2_0 0
x_9_13_2_1 0
x_9_13_2_2 0
x_9_13_3_0 0
x_9_13_3_1 0
x_9_13_3_2 0
x_9_13_4_0 0
x_9_13_4_1 0
x_9_13_4_2 0
x_9_14_0_0 0
x_9_14_0_1 0
x_9_14_0_2 0
x_9_14_1_0 0
x_9_14_1_1 0
x_9_14_1_2 0
x_9_14_2_0 0
x_9_14_2_1 0
x_9_14_2_2 0
x_9_14_3_0 0
x_9_14_3_1 0
x_9_14_3_2 0
x_9_14_4_0 0
x_9_14_4_1 0
x_9_14_4_2 0
x_9_15_0_0 0
x_9_15_0_1 0
x_9_15_0_2 0
x_9_15_1_0 0
x_9_15_1_1 0
x_9_15_1_2 0
x_9_15_2_0 0
x_9_15_2_1 0
x_9_15_2_2 0
x_9_15_3_0 0
x_9_15_3_1 0
x_9_15_3_2 0
x_9_15_4_0 0
x_9_15_4_1 0
x_9_15_4_2 0
x_10_11_0_0 0
x_10_11_0_1 0
x_10_11_0_2 0
x_10_11_1_0 0
x_10_11_1_1 0
x_10_11_1_2 0
x_10_11_2_0 0
x_10_11_2_1 0
x_10_11_2_2 0
x_10_11_3_0 0
x_10_11_3_1 0
x_10_11_3_2 0
x_10_11_4_0 0
x_10_11_4_1 0
x_10_11_4_2 0
x_10_12_0_0 0
x_10_12_0_1 0
x_10_12_0_2 0
x_10_12_1_0 0
x_10_12_1_1 0
x_10_12_1_2 0
x_10_12_2_0 0
x_10_12_2_1 0
x_10_12_2_2 0
x_10_12_3_0 0
x_10_12_3_1 0
x_10_12_3_2 0
x_10_12_4_0 0
x_10_12_4_1 0
x_10_12_4_2 7.58342883438507e-13
x_10_13_0_0 0
x_10_13_0_1 0
x_10_13_0_2 0
x_10_13_1_0 0
x_10_13_1_1 0
x_10_13_1_2 0
x_10_13_2_0 0
x_10_13_2_1 0
x_10_13_2_2 0
x_10_13_3_0 0
x_10_13_3_1 0
x_10_13_3_2 0
x_10_13_4_0 0
x_10_13_4_1 0
x_10_13_4_2 0
x_10_14_0_0 0
x_10_14_0_1 0
x_10_14_0_2 0
x_10_14_1_0 0
x_10_14_1_1 0
x_10_14_1_2 0
x_10_14_2_0 0
x_10_14_2_1 0
x_10_14_2_2 0
x_10_14_3_0 0
x_10_14_3_1 0
x_10_14_3_2 0
x_10_14_4_0 0
x_10_14_4_1 0
x_10_14_4_2 -7.58342883438507e-13
x_10_15_0_0 0
x_10_15_0_1 0
x_10_15_0_2 0
x_10_15_1_0 1
x_10_15_1_1 0
x_10_15_1_2 0
x_10_15_2_0 0
x_10_15_2_1 0
x_10_15_2_2 0
x_10_15_3_0 0
x_10_15_3_1 0
x_10_15_3_2 0
x_10_15_4_0 0
x_10_15_4_1 0
x_10_15_4_2 0
x_11_12_0_0 0
x_11_12_0_1 0
x_11_12_0_2 0
x_11_12_1_0 0
x_11_12_1_1 0
x_11_12_1_2 0
x_11_12_2_0 0
x_11_12_2_1 -2.7755575615628914e-17
x_11_12_2_2 0
x_11_12_3_0 0
x_11_12_3_1 0
x_11_12_3_2 0
x_11_12_4_0 0
x_11_12_4_1 0
x_11_12_4_2 0
x_11_13_0_0 0
x_11_13_0_1 0
x_11_13_0_2 0
x_11_13_1_0 0
x_11_13_1_1 0
x_11_13_1_2 0
x_11_13_2_0 0
x_11_13_2_1 0
x_11_13_2_2 0
x_11_13_3_0 0
x_11_13_3_1 0
x_11_13_3_2 0
x_11_13_4_0 0
x_11_13_4_1 0
x_11_13_4_2 0
x_11_14_0_0 0
x_11_14_0_1 0
x_11_14_0_2 0
x_11_14_1_0 0
x_11_14_1_1 0
x_11_14_1_2 0
x_11_14_2_0 0
x_11_14_2_1 0
x_11_14_2_2 0
x_11_14_3_0 0
x_11_14_3_1 0
x_11_14_3_2 0
x_11_14_4_0 0
x_11_14_4_1 0
x_11_14_4_2 0
x_11_15_0_0 0
x_11_15_0_1 0
x_11_15_0_2 0
x_11_15_1_0 3.7944647424126288e-13
x_11_15_1_1 0
x_11_15_1_2 0
x_11_15_2_0 0
x_11_15_2_1 0
x_11_15_2_2 0
x_11_15_3_0 0
x_11_15_3_1 0
x_11_15_3_2 0
x_11_15_4_0 0
x_11_15_4_1 0
x_11_15_4_2 0
x_12_13_0_0 0
x_12_13_0_1 0
x_12_13_0_2 0
x_12_13_1_0 0
x_12_13_1_1 0
x_12_13_1_2 0
x_12_13_2_0 0
x_12_13_2_1 1
x_12_13_2_2 0
x_12_13_3_0 0
x_12_13_3_1 0
x_12_13_3_2 0
x_12_13_4_0 0
x_12_13_4_1 0
x_12_13_4_2 -7.58342883438507e-13
x_12_14_0_0 0
x_12_14_0_1 0
x_12_14_0_2 0
x_12_14_1_0 0
x_12_14_1_1 0
x_12_14_1_2 0
x_12_14_2_0 0
x_12_14_2_1 0
x_12_14_2_2 0
x_12_14_3_0 0
x_12_14_3_1 0
x_12_14_3_2 0
x_12_14_4_0 0
x_12_14_4_1 0
x_12_14_4_2 0
x_12_15_0_0 0
x_12_15_0_1 0
x_12_15_0_2 0
x_12_15_1_0 0
x_12_15_1_1 0
x_12_15_1_2 0
x_12_15_2_0 0
x_12_15_2_1 0
x_12_15_2_2 0
x_12_15_3_0 0
x_12_15_3_1 0
x_12_15_3_2 0
x_12_15_4_0 0
x_12_15_4_1 0
x_12_15_4_2 0
x_13_14_0_0 0
x_13_14_0_1 0
x_13_14_0_2 0
x_13_14_1_0 0
x_13_14_1_1 0
x_13_14_1_2 0
x_13_14_2_0 0
x_13_14_2_1 0
x_13_14_2_2 0
x_13_14_3_0 0
x_13_14_3_1 0
x_13_14_3_2 0
x_13_14_4_0 0
x_13_14_4_1 0
x_13_14_4_2 0
x_13_15_0_0 0
x_13_15_0_1 0
x_13_15_0_2 0
x_13_15_1_0 0
x_13_15_1_1 0
x_13_15_1_2 0
x_13_15_2_0 0
x_13_15_2_1 0
x_13_15_2_2 0
x_13_15_3_0 0
x_13_15_3_1 0
x_13_15_3_2 0
x_13_15_4_0 0
x_13_15_4_1 1.8957385650585508e-13
x_13_15_4_2 0
x_14_15_0_0 0
x_14_15_0_1 0
x_14_15_0_2 0
x_14_15_1_0 0
x_14_15_1_1 0
x_14_15_1_2 0
x_14_15_2_0 0
x_14_15_2_1 0
x_14_15_2_2 0
x_14_15_3_0 0
x_14_15_3_1 0
x_14_15_3_2 0
x_14_15_4_0 0
x_14_15_4_1 0
x_14_15_4_2 0
